unsat
(:cnf-encoding-aux-vars 99
 :elim-unconstrained    4
 :max-memory            19.40
 :memory                18.84
 :nlsat-arith-var       21
 :nlsat-atoms           205
 :nlsat-bool-var        126
 :nlsat-clauses         540
 :nlsat-conflicts       131
 :nlsat-decisions       574
 :nlsat-propagations    3516
 :num-allocs            237120
 :rlimit-count          70175
 :solve-eqs-elim-vars   121
 :solve-eqs-steps       384
 :time                  0.02
 :total-time            0.03)
